
Gurobi 9.1.0 (win64) logging started Mon Dec 14 20:14:12 2020

Changed value of parameter LogFile to logs/iteration9
   Prev:   Default: 
Gurobi Optimizer version 9.1.0 build v9.1.0rc0 (win64)
Thread count: 4 physical cores, 8 logical processors, using up to 8 threads
Optimize a model with 136 rows, 536 columns and 2120 nonzeros
Model fingerprint: 0x30283a41
Coefficient statistics:
  Matrix range     [1e+00, 1e+00]
  Objective range  [1e+03, 4e+03]
  Bounds range     [0e+00, 0e+00]
  RHS range        [1e+00, 1e+00]
Presolve removed 39 rows and 39 columns
Presolve time: 0.00s
Presolved: 97 rows, 497 columns, 2080 nonzeros

Iteration    Objective       Primal Inf.    Dual Inf.      Time
       0    8.5533500e+04   8.000000e+01   0.000000e+00      0s
     165    1.1918117e+05   0.000000e+00   0.000000e+00      0s

Solved in 165 iterations and 0.00 seconds
Optimal objective  1.191811667e+05

Solutionx[5] 1.000000 
x[6] 0.125000 
x[8] 0.375000 
x[13] 0.500000 
x[24] 1.000000 
x[26] 1.000000 
x[27] 1.000000 
x[28] 0.250000 
x[37] 0.250000 
x[41] 0.750000 
x[43] 0.250000 
x[47] 0.500000 
x[50] 0.875000 
x[54] 1.000000 
x[55] 0.750000 
x[57] 0.375000 
x[60] 0.750000 
x[63] 1.000000 
x[64] 1.000000 
x[65] 1.000000 
x[68] 1.000000 
x[70] 1.000000 
x[71] 1.000000 
x[72] 1.000000 
x[74] 1.000000 
x[76] 1.000000 
x[77] 1.000000 
x[78] 1.000000 
x[82] 1.000000 
x[83] 1.000000 
x[85] 0.500000 
x[86] 0.250000 
x[87] 0.250000 
x[90] 0.750000 
x[100] 1.000000 
x[101] 1.000000 
x[102] 1.000000 
x[103] 1.000000 
x[104] 1.000000 
x[105] 1.000000 
x[106] 0.250000 
x[107] 1.000000 
x[113] 1.000000 
x[114] 1.000000 
x[116] 0.250000 
x[118] 1.000000 
x[120] 1.000000 
x[121] 1.000000 
x[122] 1.000000 
x[123] 1.000000 
x[124] 1.000000 
x[125] 1.000000 
x[126] 1.000000 
x[127] 1.000000 
x[128] 1.000000 
x[129] 1.000000 
x[130] 1.000000 
x[131] 1.000000 
x[132] 1.000000 
x[133] 1.000000 
x[134] 1.000000 
x[135] 1.000000 
x[436] 0.750000 
x[731] 0.250000 
x[906] 0.250000 
x[1154] 0.250000 
x[2944] 0.500000 
x[3471] 0.125000 
x[4760] 0.750000 
x[7471] 0.250000 
x[10635] 0.125000 
x[21791] 0.625000 
x[27289] 0.125000 
x[9171] 1.000000 
x[8411] 1.000000 
x[16684] 0.500000 
x[1305] 0.500000 
x[520] 0.500000 
x[859] 0.250000 
x[885] 0.250000 
x[1078] 0.250000 
x[1102] 0.750000 
x[1411] 0.250000 
x[6664] 0.750000 
x[3365] 1.000000 
x[1960] 0.750000 
x[8618] 0.250000 
x[15181] 0.750000 
x[4962] 0.250000 
x[30937] 1.000000 
x[3046] 1.000000 
x[27622] 0.875000 
x[1687] 0.125000 
x[8187] 0.250000 
x[22835] 0.750000 
